12
0 74 76 61 94 84 48 92 19 95 72 81 
11 0 27 31 65 85 27 47 65 54 3 93 
55 10 0 64 87 33 11 30 33 69 91 47 
12 62 1 0 43 72 70 83 70 89 81 43 
33 7 61 91 0 39 44 74 54 95 90 55 
63 28 98 74 44 0 68 84 33 8 61 36 
9 12 27 89 27 4 0 5 4 100 96 23 
19 37 52 64 94 100 93 0 66 65 82 77 
39 83 38 31 85 31 64 59 0 44 98 25 
54 41 12 82 73 18 42 23 18 0 45 55 
23 8 79 97 44 96 62 38 28 95 0 21 
68 5 34 54 54 81 24 20 44 87 51 0 
